19747
1 0 0 0 0 0 0 0 0 0 0 1 0 0 0 0 0 1 0 0 1 0 0 0 1 0 0 0 0 0 
20 0 17 17 11 0 17 24 17 17 11 20 20 20 11 20 0 17 11 11 11 11 24 0 24 20 17 24 24 24 11 0 20 11 20 20 24 11 17 17 0 11 24 17 24 0 11 20 17 17 0 17 0 11 11 20 17 11 0 20 17 24 20 0 0 11 24 11 24 24 20 20 0 11 24 20 24 20 11 24 20 0 24 0 0 11 17 11 20 24 11 24 0 0 0 24 17 17 0 20 17 0 17 17 11 0 17 0 20 20 0 17 11 17 11 17 11 24 24 24 11 17 11 20 20 17 24 24 17 0 17 0 11 24 20 17 17 24 20 0 17 20 20 0 20 0 0 0 0 24 
